benchmarks/NIA/2018.sorin/_source/gauss/gauss_sum-more-rows.auto.sol
2 * sum == i * (i - 1) && i <= n + 1
